(set-logic QF_NRA)
(set-info :source |Benchmarks generated from hycomp (https://es-static.fbk.eu/tools/hycomp/). BMC instances of non-linear hybrid automata taken from: Alessandro Cimatti, Sergio Mover, Stefano Tonetta, A quantifier-free SMT encoding of non-linear hybrid automata, FMCAD 2012 and Alessandro Cimatti, Sergio Mover, Stefano Tonetta, Quantier-free encoding of invariants for Hybrid Systems, Formal Methods in System Design. This instance solves a BMC problem of depth 0 and uses the quantifier free encoding with lemmas encoding. Contacts: Sergio Mover (mover@fbk.eu), Stefano Tonetta (tonettas@fbk.eu), Alessandro Cimatti (cimatti@fbk.eu).|)
(set-info :smt-lib-version 2.0)
(set-info :category "industrial")
(set-info :status unsat)
;; MathSAT API call trace
;; generated on Mon Mar 19 10:42:38 2012
(declare-fun b.counter.0__AT0 () Bool)
(declare-fun b.counter.1__AT0 () Bool)
(declare-fun b.counter.2__AT0 () Bool)
(declare-fun b.delta__AT0 () Real)
(declare-fun b.EVENT.0__AT0 () Bool)
(declare-fun b.EVENT.1__AT0 () Bool)
(declare-fun b.speed_loss__AT0 () Real)
(declare-fun b.counter.3__AT0 () Bool)
(declare-fun b.x__AT0 () Real)
(declare-fun b.speed_y__AT0 () Real)
(declare-fun b.event_is_timed__AT0 () Bool)
(declare-fun b.speed_x__AT0 () Real)
(declare-fun b.time__AT0 () Real)
(declare-fun b.y__AT0 () Real)
(assert (let ((.def_87 (* (- (/ 49 10)) b.speed_y__AT0)))
(let ((.def_118 (* 3.0 .def_87)))
(let ((.def_282 (* (- 1.0) .def_118)))
(let ((.def_304 (* 2.0 .def_282)))
(let ((.def_346 (* (- 1.0) .def_304)))
(let ((.def_347 (* b.delta__AT0 .def_346)))
(let ((.def_348 (* (- 50.0) .def_347)))
(let ((.def_92 (* b.speed_y__AT0 b.speed_y__AT0)))
(let ((.def_181 (* (- 50.0) .def_92)))
(let ((.def_352 (+ .def_181 .def_348)))
(let ((.def_78 (* b.delta__AT0 b.delta__AT0)))
(let ((.def_179 (* (- 7203.0) .def_78)))
(let ((.def_353 (+ .def_179 .def_352)))
(let ((.def_184 (* 490.0 b.y__AT0)))
(let ((.def_354 (+ .def_184 .def_353)))
(let ((.def_357 (<= 0.0 .def_354)))
(let ((.def_364 (not .def_357)))
(let ((.def_193 (* (- 5.0) .def_92)))
(let ((.def_194 (* 49.0 b.y__AT0)))
(let ((.def_196 (+ .def_194 .def_193)))
(let ((.def_207 (<= 0.0 .def_196)))
(let ((.def_365 (or .def_207 .def_364)))
(let ((.def_355 (<= .def_354 0.0 )))
(let ((.def_197 (<= .def_196 0.0 )))
(let ((.def_198 (not .def_197)))
(let ((.def_363 (or .def_198 .def_355)))
(let ((.def_366 (and .def_363 .def_365)))
(let ((.def_238 (<= 0.0 b.speed_y__AT0)))
(let ((.def_239 (not .def_238)))
(let ((.def_224 (* (- 49.0) b.delta__AT0)))
(let ((.def_225 (* 5.0 b.speed_y__AT0)))
(let ((.def_227 (+ .def_225 .def_224)))
(let ((.def_236 (<= 0.0 .def_227)))
(let ((.def_237 (not .def_236)))
(let ((.def_240 (or .def_237 .def_239)))
(let ((.def_241 (not .def_240)))
(let ((.def_367 (or .def_241 .def_366)))
(let ((.def_359 (not .def_355)))
(let ((.def_360 (or .def_197 .def_359)))
(let ((.def_208 (not .def_207)))
(let ((.def_358 (or .def_208 .def_357)))
(let ((.def_361 (and .def_358 .def_360)))
(let ((.def_228 (<= .def_227 0.0 )))
(let ((.def_229 (not .def_228)))
(let ((.def_221 (<= b.speed_y__AT0 0.0 )))
(let ((.def_222 (not .def_221)))
(let ((.def_230 (or .def_222 .def_229)))
(let ((.def_231 (not .def_230)))
(let ((.def_362 (or .def_231 .def_361)))
(let ((.def_368 (and .def_362 .def_367)))
(let ((.def_356 (and .def_197 .def_355)))
(let ((.def_369 (and .def_356 .def_368)))
(let ((.def_250 (and .def_236 .def_238)))
(let ((.def_247 (or .def_237 .def_238)))
(let ((.def_246 (or .def_222 .def_228)))
(let ((.def_248 (and .def_246 .def_247)))
(let ((.def_251 (and .def_248 .def_250)))
(let ((.def_245 (and .def_221 .def_228)))
(let ((.def_249 (and .def_245 .def_248)))
(let ((.def_252 (or .def_249 .def_251)))
(let ((.def_370 (and .def_252 .def_369)))
(let ((.def_305 (* b.delta__AT0 .def_304)))
(let ((.def_306 (* 50.0 .def_305)))
(let ((.def_310 (+ .def_181 .def_306)))
(let ((.def_311 (+ .def_179 .def_310)))
(let ((.def_312 (+ .def_184 .def_311)))
(let ((.def_323 (<= .def_312 0.0 )))
(let ((.def_324 (not .def_323)))
(let ((.def_340 (or .def_197 .def_324)))
(let ((.def_313 (<= 0.0 .def_312)))
(let ((.def_339 (or .def_208 .def_313)))
(let ((.def_341 (and .def_339 .def_340)))
(let ((.def_342 (or .def_231 .def_341)))
(let ((.def_314 (not .def_313)))
(let ((.def_336 (or .def_207 .def_314)))
(let ((.def_335 (or .def_198 .def_323)))
(let ((.def_337 (and .def_335 .def_336)))
(let ((.def_338 (or .def_241 .def_337)))
(let ((.def_343 (and .def_338 .def_342)))
(let ((.def_334 (and .def_207 .def_313)))
(let ((.def_344 (and .def_334 .def_343)))
(let ((.def_345 (and .def_252 .def_344)))
(let ((.def_371 (or .def_345 .def_370)))
(let ((.def_96 (* (- (/ 49 10)) b.y__AT0)))
(let ((.def_127 (* 2.0 .def_96)))
(let ((.def_291 (* (- 1.0) .def_127)))
(let ((.def_292 (* b.delta__AT0 .def_291)))
(let ((.def_293 (* (- 50.0) .def_292)))
(let ((.def_122 (* 2.0 .def_92)))
(let ((.def_286 (* (- 1.0) .def_122)))
(let ((.def_287 (* b.delta__AT0 .def_286)))
(let ((.def_289 (* (- 25.0) .def_287)))
(let ((.def_297 (+ .def_289 .def_293)))
(let ((.def_283 (* .def_78 .def_282)))
(let ((.def_284 (* (- 50.0) .def_283)))
(let ((.def_298 (+ .def_284 .def_297)))
(let ((.def_100 (* b.y__AT0 b.speed_y__AT0)))
(let ((.def_133 (* 50.0 .def_100)))
(let ((.def_299 (+ .def_133 .def_298)))
(let ((.def_79 (* b.delta__AT0 .def_78)))
(let ((.def_131 (* 2401.0 .def_79)))
(let ((.def_300 (+ .def_131 .def_299)))
(let ((.def_135 (* 25.0 b.speed_x__AT0)))
(let ((.def_301 (+ .def_135 .def_300)))
(let ((.def_317 (<= 0.0 .def_301)))
(let ((.def_328 (not .def_317)))
(let ((.def_144 (* 2.0 .def_100)))
(let ((.def_145 (+ b.speed_x__AT0 .def_144)))
(let ((.def_146 (<= 0.0 .def_145)))
(let ((.def_329 (or .def_146 .def_328)))
(let ((.def_302 (<= .def_301 0.0 )))
(let ((.def_160 (<= .def_145 0.0 )))
(let ((.def_161 (not .def_160)))
(let ((.def_327 (or .def_161 .def_302)))
(let ((.def_330 (and .def_327 .def_329)))
(let ((.def_325 (or .def_198 .def_324)))
(let ((.def_326 (not .def_325)))
(let ((.def_331 (or .def_326 .def_330)))
(let ((.def_319 (not .def_302)))
(let ((.def_320 (or .def_160 .def_319)))
(let ((.def_147 (not .def_146)))
(let ((.def_318 (or .def_147 .def_317)))
(let ((.def_321 (and .def_318 .def_320)))
(let ((.def_315 (or .def_208 .def_314)))
(let ((.def_316 (not .def_315)))
(let ((.def_322 (or .def_316 .def_321)))
(let ((.def_332 (and .def_322 .def_331)))
(let ((.def_303 (and .def_160 .def_302)))
(let ((.def_333 (and .def_303 .def_332)))
(let ((.def_372 (and .def_333 .def_371)))
(let ((.def_173 (* 2.0 .def_118)))
(let ((.def_255 (* (- 1.0) .def_173)))
(let ((.def_256 (* b.delta__AT0 .def_255)))
(let ((.def_257 (* 50.0 .def_256)))
(let ((.def_261 (+ .def_181 .def_257)))
(let ((.def_262 (+ .def_179 .def_261)))
(let ((.def_263 (+ .def_184 .def_262)))
(let ((.def_266 (<= .def_263 0.0 )))
(let ((.def_273 (not .def_266)))
(let ((.def_274 (or .def_197 .def_273)))
(let ((.def_264 (<= 0.0 .def_263)))
(let ((.def_272 (or .def_208 .def_264)))
(let ((.def_275 (and .def_272 .def_274)))
(let ((.def_276 (or .def_231 .def_275)))
(let ((.def_268 (not .def_264)))
(let ((.def_269 (or .def_207 .def_268)))
(let ((.def_267 (or .def_198 .def_266)))
(let ((.def_270 (and .def_267 .def_269)))
(let ((.def_271 (or .def_241 .def_270)))
(let ((.def_277 (and .def_271 .def_276)))
(let ((.def_265 (and .def_207 .def_264)))
(let ((.def_278 (and .def_265 .def_277)))
(let ((.def_279 (and .def_252 .def_278)))
(let ((.def_174 (* b.delta__AT0 .def_173)))
(let ((.def_176 (* (- 50.0) .def_174)))
(let ((.def_186 (+ .def_181 .def_176)))
(let ((.def_187 (+ .def_179 .def_186)))
(let ((.def_188 (+ .def_184 .def_187)))
(let ((.def_205 (<= 0.0 .def_188)))
(let ((.def_206 (not .def_205)))
(let ((.def_234 (or .def_206 .def_207)))
(let ((.def_189 (<= .def_188 0.0 )))
(let ((.def_233 (or .def_189 .def_198)))
(let ((.def_235 (and .def_233 .def_234)))
(let ((.def_242 (or .def_235 .def_241)))
(let ((.def_190 (not .def_189)))
(let ((.def_219 (or .def_190 .def_197)))
(let ((.def_218 (or .def_205 .def_208)))
(let ((.def_220 (and .def_218 .def_219)))
(let ((.def_232 (or .def_220 .def_231)))
(let ((.def_243 (and .def_232 .def_242)))
(let ((.def_217 (and .def_189 .def_197)))
(let ((.def_244 (and .def_217 .def_243)))
(let ((.def_253 (and .def_244 .def_252)))
(let ((.def_280 (or .def_253 .def_279)))
(let ((.def_128 (* b.delta__AT0 .def_127)))
(let ((.def_129 (* 50.0 .def_128)))
(let ((.def_123 (* b.delta__AT0 .def_122)))
(let ((.def_125 (* 25.0 .def_123)))
(let ((.def_137 (+ .def_125 .def_129)))
(let ((.def_119 (* .def_78 .def_118)))
(let ((.def_121 (* 50.0 .def_119)))
(let ((.def_138 (+ .def_121 .def_137)))
(let ((.def_139 (+ .def_133 .def_138)))
(let ((.def_140 (+ .def_131 .def_139)))
(let ((.def_141 (+ .def_135 .def_140)))
(let ((.def_158 (<= .def_141 0.0 )))
(let ((.def_159 (not .def_158)))
(let ((.def_212 (or .def_159 .def_160)))
(let ((.def_142 (<= 0.0 .def_141)))
(let ((.def_211 (or .def_142 .def_147)))
(let ((.def_213 (and .def_211 .def_212)))
(let ((.def_209 (or .def_206 .def_208)))
(let ((.def_210 (not .def_209)))
(let ((.def_214 (or .def_210 .def_213)))
(let ((.def_143 (not .def_142)))
(let ((.def_202 (or .def_143 .def_146)))
(let ((.def_201 (or .def_158 .def_161)))
(let ((.def_203 (and .def_201 .def_202)))
(let ((.def_199 (or .def_190 .def_198)))
(let ((.def_200 (not .def_199)))
(let ((.def_204 (or .def_200 .def_203)))
(let ((.def_215 (and .def_204 .def_214)))
(let ((.def_172 (and .def_142 .def_146)))
(let ((.def_216 (and .def_172 .def_215)))
(let ((.def_281 (and .def_216 .def_280)))
(let ((.def_373 (or .def_281 .def_372)))
(let ((.def_101 (* b.delta__AT0 .def_100)))
(let ((.def_102 (* 200.0 .def_101)))
(let ((.def_97 (* .def_78 .def_96)))
(let ((.def_98 (* 200.0 .def_97)))
(let ((.def_108 (+ .def_98 .def_102)))
(let ((.def_93 (* .def_78 .def_92)))
(let ((.def_94 (* 100.0 .def_93)))
(let ((.def_109 (+ .def_94 .def_108)))
(let ((.def_88 (* .def_79 .def_87)))
(let ((.def_90 (* 200.0 .def_88)))
(let ((.def_110 (+ .def_90 .def_109)))
(let ((.def_80 (* b.delta__AT0 .def_79)))
(let ((.def_82 (* 2401.0 .def_80)))
(let ((.def_111 (+ .def_82 .def_110)))
(let ((.def_75 (* b.speed_x__AT0 b.delta__AT0)))
(let ((.def_77 (* 100.0 .def_75)))
(let ((.def_112 (+ .def_77 .def_111)))
(let ((.def_60 (* b.y__AT0 b.y__AT0)))
(let ((.def_104 (* 100.0 .def_60)))
(let ((.def_113 (+ .def_104 .def_112)))
(let ((.def_106 (* 100.0 b.x__AT0)))
(let ((.def_114 (+ .def_106 .def_113)))
(let ((.def_152 (<= .def_114 0.0 )))
(let ((.def_166 (not .def_152)))
(let ((.def_61 (+ b.x__AT0 .def_60)))
(let ((.def_150 (<= .def_61 0.0 )))
(let ((.def_167 (or .def_150 .def_166)))
(let ((.def_62 (<= 0.0 .def_61)))
(let ((.def_164 (not .def_62)))
(let ((.def_115 (<= 0.0 .def_114)))
(let ((.def_165 (or .def_115 .def_164)))
(let ((.def_168 (and .def_165 .def_167)))
(let ((.def_162 (or .def_159 .def_161)))
(let ((.def_163 (not .def_162)))
(let ((.def_169 (or .def_163 .def_168)))
(let ((.def_154 (not .def_115)))
(let ((.def_155 (or .def_62 .def_154)))
(let ((.def_151 (not .def_150)))
(let ((.def_153 (or .def_151 .def_152)))
(let ((.def_156 (and .def_153 .def_155)))
(let ((.def_148 (or .def_143 .def_147)))
(let ((.def_149 (not .def_148)))
(let ((.def_157 (or .def_149 .def_156)))
(let ((.def_170 (and .def_157 .def_169)))
(let ((.def_116 (and .def_62 .def_115)))
(let ((.def_171 (and .def_116 .def_170)))
(let ((.def_374 (and .def_171 .def_373)))
(let ((.def_68 (<= b.speed_loss__AT0 (/ 1 2))))
(let ((.def_65 (<= (/ 1 10) b.speed_loss__AT0)))
(let ((.def_69 (and .def_65 .def_68)))
(let ((.def_375 (and .def_69 .def_374)))
(let ((.def_70 (and .def_62 .def_69)))
(let ((.def_57 (not b.EVENT.0__AT0)))
(let ((.def_55 (not b.EVENT.1__AT0)))
(let ((.def_58 (or .def_55 .def_57)))
(let ((.def_9 (not b.counter.0__AT0)))
(let ((.def_6 (not b.counter.1__AT0)))
(let ((.def_48 (or .def_6 .def_9)))
(let ((.def_52 (or b.counter.3__AT0 .def_48)))
(let ((.def_49 (or b.counter.2__AT0 .def_48)))
(let ((.def_4 (not b.counter.2__AT0)))
(let ((.def_47 (or .def_4 .def_9)))
(let ((.def_50 (and .def_47 .def_49)))
(let ((.def_14 (not b.counter.3__AT0)))
(let ((.def_51 (or .def_14 .def_50)))
(let ((.def_53 (and .def_51 .def_52)))
(let ((.def_59 (and .def_53 .def_58)))
(let ((.def_71 (and .def_59 .def_70)))
(let ((.def_10 (and .def_6 .def_9)))
(let ((.def_44 (and .def_4 .def_10)))
(let ((.def_45 (and .def_14 .def_44)))
(let ((.def_42 (= b.speed_y__AT0 1.0 )))
(let ((.def_39 (= b.speed_x__AT0 1.0 )))
(let ((.def_35 (= b.y__AT0 10.0 )))
(let ((.def_31 (= b.x__AT0 (- 9.0) )))
(let ((.def_25 (= b.time__AT0 0.0 )))
(let ((.def_27 (and .def_25 b.event_is_timed__AT0)))
(let ((.def_32 (and .def_27 .def_31)))
(let ((.def_36 (and .def_32 .def_35)))
(let ((.def_40 (and .def_36 .def_39)))
(let ((.def_43 (and .def_40 .def_42)))
(let ((.def_46 (and .def_43 .def_45)))
(let ((.def_72 (and .def_46 .def_71)))
(let ((.def_17 (or b.counter.1__AT0 .def_9)))
(let ((.def_18 (or b.counter.2__AT0 .def_17)))
(let ((.def_16 (or .def_4 .def_10)))
(let ((.def_19 (and .def_16 .def_18)))
(let ((.def_20 (or b.counter.3__AT0 .def_19)))
(let ((.def_11 (or b.counter.2__AT0 .def_10)))
(let ((.def_7 (or .def_4 .def_6)))
(let ((.def_12 (and .def_7 .def_11)))
(let ((.def_15 (or .def_12 .def_14)))
(let ((.def_21 (and .def_15 .def_20)))
(let ((.def_22 (not .def_21)))
(let ((.def_73 (and .def_22 .def_72)))
(let ((.def_376 (and .def_73 .def_375)))
.def_376))))))))))))))))))))))))))))))))))))))))))))))))))))))))))))))))))))))))))))))))))))))))))))))))))))))))))))))))))))))))))))))))))))))))))))))))))))))))))))))))))))))))))))))))))))))))))))))))))))))))))))))))))))))))))))))))))))))))))))))))))))))))))))))))))))))))))))))))))))))))))))))))))))))))))))))))
(check-sat)
(exit)
